RT is False
Default write of storage_offers_DA.csv just to have a file (but constraint should be inactive)
Reading model...
...model read.
creating competitive generators file...
...competitive generators recorded.
Loading data...
.. day-ahead data read.
Compiling instance...
...instance created.
Creating Offer Mitigation (model will solve as dispatch if TRUE)...
...storage offer mitigation file created
Converting model to MPEC...
...converted
NOTE: initial MIP solve with only storage competitive to get feasible solution
Solving...

Welcome to IBM(R) ILOG(R) CPLEX(R) Interactive Optimizer 12.9.0.0
  with Simplex, Mixed Integer & Barrier Optimizers
5725-A06 5725-A29 5724-Y48 5724-Y49 5724-Y54 5724-Y55 5655-Y21
Copyright IBM Corp. 1988, 2019.  All Rights Reserved.

Type 'help' for a list of available commands.
Type 'help' followed by a command name for more
information on commands.

CPLEX> Logfile 'cplex.log' closed.
Logfile 'C:\Users\Luke\Desktop\competitiveMPEC_12.6\logs\tmp_3k8btea.cplex.log' open.
CPLEX> New value for parallel optimization mode: -1
CPLEX> New value for mixed integer optimality gap tolerance: 0.01
CPLEX> New value for integrality tolerance: 1e-09
CPLEX> New value for feasibility tolerance: 0.01
CPLEX> New value for deterministic time limit in ticks: 175000
CPLEX> Problem 'C:\Users\Luke\Desktop\competitiveMPEC_12.6\logs\tmp6refqj57.pyomo.lp' read.
Read time = 0.19 sec. (13.79 ticks)
CPLEX> Problem name         : C:\Users\Luke\Desktop\competitiveMPEC_12.6\logs\tmp6refqj57.pyomo.lp
Objective sense      : Maximize
Variables            :   53321  [Nneg: 1,  Box: 21806,  Free: 4416,
                                 Binary: 27098]
Objective nonzeros   :    8945
Linear constraints   :  122188  [Less: 41007,  Greater: 58612,  Equal: 22569]
  Nonzeros           :  288518
  RHS nonzeros       :   66971

Variables            : Min LB: -5000.000        Max UB: 1000000.       
Objective nonzeros   : Min   : 0.1000000        Max   : 795.1000       
Linear constraints   :
  Nonzeros           : Min   : 0.1000000        Max   : 1000000.       
  RHS nonzeros       : Min   : 0.1000000        Max   : 1000000.       
CPLEX> CPXPARAM_Parallel                                -1
CPXPARAM_Simplex_Tolerances_Feasibility          0.01
CPXPARAM_DetTimeLimit                            175000
CPXPARAM_MIP_Tolerances_MIPGap                   0.01
CPXPARAM_MIP_Tolerances_Integrality              1.0000000000000001e-09
Tried aggregator 3 times.
MIP Presolve eliminated 88334 rows and 19140 columns.
MIP Presolve added 3337 rows and 0 columns.
MIP Presolve modified 24471 coefficients.
Aggregator did 12845 substitutions.
Reduced MIP has 24346 rows, 20754 columns, and 68266 nonzeros.
Reduced MIP has 8203 binaries, 0 generals, 0 SOSs, and 0 indicators.
Presolve time = 0.22 sec. (171.33 ticks)
Probing fixed 416 vars, tightened 2844 bounds.
Probing time = 1.44 sec. (909.21 ticks)
Tried aggregator 2 times.
MIP Presolve eliminated 929 rows and 835 columns.
MIP Presolve modified 2155 coefficients.
Aggregator did 60 substitutions.
Reduced MIP has 23357 rows, 19859 columns, and 65388 nonzeros.
Reduced MIP has 7786 binaries, 0 generals, 0 SOSs, and 0 indicators.
Presolve time = 0.09 sec. (68.53 ticks)
Probing time = 0.03 sec. (15.69 ticks)
Clique table members: 6330.
MIP emphasis: balance optimality and feasibility.
MIP search method: dynamic search.
Parallel mode: opportunistic, using up to 24 threads.
Root relaxation solution time = 0.28 sec. (253.95 ticks)

        Nodes                                         Cuts/
   Node  Left     Objective  IInf  Best Integer    Best Bound    ItCnt     Gap

      0     0     4005.9746  1642                   4005.9746     6427         
*     0     0      integral     0     4005.9746     4005.9746     6427    0.00%
Elapsed time = 3.84 sec. (2826.02 ticks, tree = 0.01 MB, solutions = 1)

Root node processing (before b&c):
  Real time             =    3.86 sec. (2827.93 ticks)
Parallel b&c, 24 threads:
  Real time             =    0.00 sec. (0.00 ticks)
  Sync time (average)   =    0.00 sec.
  Wait time (average)   =    0.00 sec.
                          ------------
Total (root+branch&cut) =    3.86 sec. (2827.93 ticks)

Solution pool: 1 solution saved.

MIP - Integer optimal solution:  Objective =  4.0059745710e+03
Solution time =    3.86 sec.  Iterations = 6427  Nodes = 0
Deterministic time = 2828.08 ticks  (732.66 ticks/sec)

CPLEX> Incumbent solution written to file 'C:\Users\Luke\Desktop\competitiveMPEC_12.6\logs\tmpcdk68wa8.cplex.sol'.
CPLEX> NOTE: no warmstart specified for MIP iteration, default behavior is true
NOTE: resolving with all competitive generators using storage-only solution to warmstart
Solving...

Welcome to IBM(R) ILOG(R) CPLEX(R) Interactive Optimizer 12.9.0.0
  with Simplex, Mixed Integer & Barrier Optimizers
5725-A06 5725-A29 5724-Y48 5724-Y49 5724-Y54 5724-Y55 5655-Y21
Copyright IBM Corp. 1988, 2019.  All Rights Reserved.

Type 'help' for a list of available commands.
Type 'help' followed by a command name for more
information on commands.

CPLEX> Logfile 'cplex.log' closed.
Logfile 'C:\Users\Luke\Desktop\competitiveMPEC_12.6\logs\tmpy6clz1ck.cplex.log' open.
CPLEX> New value for parallel optimization mode: -1
CPLEX> New value for mixed integer optimality gap tolerance: 0.01
CPLEX> New value for integrality tolerance: 1e-09
CPLEX> New value for feasibility tolerance: 0.01
CPLEX> New value for deterministic time limit in ticks: 175000
CPLEX> Problem 'C:\Users\Luke\Desktop\competitiveMPEC_12.6\logs\tmpq2zfv1go.pyomo.lp' read.
Read time = 0.19 sec. (13.81 ticks)
CPLEX> MIP start file 'C:\Users\Luke\Desktop\competitiveMPEC_12.6\logs\tmp389oox_4.cplex.mst' read.
CPLEX> Problem name         : C:\Users\Luke\Desktop\competitiveMPEC_12.6\logs\tmpq2zfv1go.pyomo.lp
Objective sense      : Maximize
Variables            :   54041  [Nneg: 1,  Box: 22526,  Free: 4416,
                                 Binary: 27098]
Objective nonzeros   :    9641
Linear constraints   :  122188  [Less: 41007,  Greater: 58612,  Equal: 22569]
  Nonzeros           :  288518
  RHS nonzeros       :   66971

Variables            : Min LB: -5000.000        Max UB: 1000000.       
Objective nonzeros   : Min   : 0.1000000        Max   : 795.1000       
Linear constraints   :
  Nonzeros           : Min   : 0.1000000        Max   : 1000000.       
  RHS nonzeros       : Min   : 0.1000000        Max   : 1000000.       
CPLEX> CPXPARAM_Parallel                                -1
CPXPARAM_Simplex_Tolerances_Feasibility          0.01
CPXPARAM_DetTimeLimit                            175000
CPXPARAM_MIP_Tolerances_MIPGap                   0.01
CPXPARAM_MIP_Tolerances_Integrality              1.0000000000000001e-09
Warning:  No solution found from 1 MIP starts.
Retaining values of one MIP start for possible repair.
Tried aggregator 3 times.
MIP Presolve eliminated 88334 rows and 19860 columns.
MIP Presolve added 3337 rows and 0 columns.
MIP Presolve modified 24471 coefficients.
Aggregator did 12845 substitutions.
Reduced MIP has 24346 rows, 20754 columns, and 68266 nonzeros.
Reduced MIP has 8203 binaries, 0 generals, 0 SOSs, and 0 indicators.
Presolve time = 0.23 sec. (171.69 ticks)
Probing fixed 416 vars, tightened 2844 bounds.
Probing time = 1.45 sec. (909.21 ticks)
Tried aggregator 2 times.
MIP Presolve eliminated 929 rows and 835 columns.
MIP Presolve modified 2155 coefficients.
Aggregator did 60 substitutions.
Reduced MIP has 23357 rows, 19859 columns, and 65388 nonzeros.
Reduced MIP has 7786 binaries, 0 generals, 0 SOSs, and 0 indicators.
Presolve time = 0.11 sec. (68.54 ticks)
Probing time = 0.02 sec. (15.69 ticks)
Clique table members: 6330.
MIP emphasis: balance optimality and feasibility.
MIP search method: dynamic search.
Parallel mode: opportunistic, using up to 24 threads.
Root relaxation solution time = 0.28 sec. (262.51 ticks)

        Nodes                                         Cuts/
   Node  Left     Objective  IInf  Best Integer    Best Bound    ItCnt     Gap

      0     0    76036.6480  1763                  76036.6480     6633         
      0     0    75277.2000   625                   Cuts: 652     6960         
      0     0    75222.7303   504                   Cuts: 317     7115         
      0     0    75215.5667   472                   Cuts: 144     7212         
      0     0    75162.3880   451                   Cuts: 118     7259         
      0     0    75162.3880   443                    Cuts: 45     7280         
      0     0    75162.3880   439                    Cuts: 31     7288         
      0     0    75162.3880   435                    Cuts: 25     7292         
Repair heuristic found nothing.
      0     2    75162.3880   435                     Cuts: 8     7292         
Elapsed time = 9.34 sec. (6242.98 ticks, tree = 0.02 MB, solutions = 0)
    183    38    68312.1341   406                  74935.6099     9035         
    558   395    infeasible                        74935.6099    16018         
   1185   616   -67195.4365   363                  74935.6099    19902         
   1950   962   -67195.4365   362                  74935.6099    21412         
   2551  1764   -72366.7829   338                  74935.6099    25341         
   3296  1853    infeasible                        74935.6099    26024         
   4012  2622    59775.6347   294                  74935.6099    29057         
   4614  3228    55236.5636   318                  74935.6099    30822         
   5377  3782    41741.1000   297                  74935.6099    31953         
   8537  6686    38896.4665   227                  74935.6099    35412         
Elapsed time = 17.50 sec. (9348.01 ticks, tree = 54.19 MB, solutions = 0)
*  9557+ 2889                        61403.9193    74935.6099            22.04%
  10000  3035        cutoff          61403.9193    70254.8534    50126   14.41%
  11177   154    63170.7835   111    61403.9193    70254.8534    51183   14.41%
  11551   824        cutoff          61403.9193    70254.8534    56408   14.41%
  12982   512        cutoff          61403.9193    63178.2096    81884    2.89%

GUB cover cuts applied:  1
Clique cuts applied:  7
Cover cuts applied:  15
Implied bound cuts applied:  34
Flow cuts applied:  346
Mixed integer rounding cuts applied:  34
Zero-half cuts applied:  1
Gomory fractional cuts applied:  97

Root node processing (before b&c):
  Real time             =    8.69 sec. (6201.47 ticks)
Parallel b&c, 24 threads:
  Real time             =   27.42 sec. (12434.28 ticks)
  Sync time (average)   =    0.90 sec.
  Wait time (average)   =    0.07 sec.
                          ------------
Total (root+branch&cut) =   36.11 sec. (18635.75 ticks)

Solution pool: 1 solution saved.

MIP - Integer optimal, tolerance (0.01/1e-06):  Objective =  6.1403919347e+04
Current MIP best bound =  6.2017377260e+04 (gap = 613.458, 1.00%)
Solution time =   36.11 sec.  Iterations = 90247  Nodes = 13704 (262)
Deterministic time = 18635.91 ticks  (516.09 ticks/sec)

CPLEX> Incumbent solution written to file 'C:\Users\Luke\Desktop\competitiveMPEC_12.6\logs\tmp_fsb2pmr.cplex.sol'.
CPLEX> Exporting results... 
